NAME: sample_FULL_MATRIX
TYPE: TSP
DIMENSION: 6
EDGE_WEIGHT_TYPE: EXPLICIT
EDGE_WEIGHT_FORMAT: UPPER_ROW
EDGE_WEIGHT_SECTION
    13 13 25 25 36
       10 12 16 25
          16 12 25
             10 13
                13
EOF
